100
128
38
39
11
21
14
50
44
15
55
47
54
64
43
32
3
41
58
54
30
47
26
58
10
16
53
36
46
9
55
51
41
20
37
2
11
14
61
24
14
9
12
21
26
28
47
41
18
20
9
37
30
36
24
26
32
2
56
53
60
51
9
28
16
47
53
48
1
47
3
16
54
38
17
1
59
43
17
21
49
22
37
5
55
51
3
2
16
44
28
50
33
32
2
2
22
64
19
20
63
64